p cnf 40 132
4 2 0
4 3 0
-2 -3 -4 0
5 -1 0
5 4 0
1 -4 -5 0
6 -3 0
6 -4 0
3 4 -6 0
-8 -1 0
-8 -7 0
1 7 8 0
9 6 0
9 8 0
-6 -8 -9 0
10 5 0
10 9 0
-5 -9 -10 0
7 2 -11 0
-7 -2 -11 0
7 -2 11 0
-7 2 11 0
12 10 0
12 11 0
-10 -11 -12 0
-15 -13 0
-15 14 0
13 -14 15 0
13 2 -16 0
-13 -2 -16 0
13 -2 16 0
-13 2 16 0
16 17 -18 0
-16 -17 -18 0
16 -17 18 0
-16 17 18 0
-20 -18 0
-20 19 0
18 -19 20 0
21 4 0
21 -1 0
-4 1 -21 0
22 -19 0
22 21 0
19 -21 -22 0
23 -22 0
23 16 0
22 -16 -23 0
-24 -7 0
-24 -19 0
7 19 24 0
23 24 -25 0
-23 -24 -25 0
23 -24 25 0
-23 24 25 0
26 -20 0
26 25 0
20 -25 -26 0
-28 -22 0
-28 -27 0
22 27 28 0
-3 -2 -29 0
3 2 -29 0
-3 2 29 0
3 -2 29 0
30 27 0
30 -13 0
-27 13 -30 0
31 29 0
31 -30 0
-29 30 -31 0
32 -28 0
32 -31 0
28 31 -32 0
26 -32 -33 0
-26 32 -33 0
26 32 33 0
-26 -32 33 0
15 -33 -34 0
-15 33 -34 0
15 33 34 0
-15 -33 34 0
-3 -2 -35 0
3 2 -35 0
-3 2 35 0
3 -2 35 0
-2 35 -36 0
2 -35 -36 0
-2 -35 36 0
2 35 36 0
36 -37 -38 0
-36 37 -38 0
36 37 38 0
-36 -37 38 0
-34 38 -39 0
34 -38 -39 0
-34 -38 39 0
34 38 39 0
40 12 0
40 -39 0
-12 39 -40 0
-15 -32 12 23 17 -25 0
-7 -24 -6 3 15 0
-3 -12 0
3 16 -30 -8 -36 0
-5 34 0
-11 35 31 0
24 7 19 25 0
29 32 2 1 0
-30 4 -31 39 -28 0
-32 40 0
-1 -11 -39 13 0
37 8 39 -14 0
36 1 -38 23 0
37 -16 -29 40 0
-37 40 14 -30 33 18 0
-11 4 37 0
12 17 18 20 0
32 30 0
-31 -5 -15 -12 11 0
15 -28 -29 -14 0
-20 -17 -38 -3 0
-26 1 -19 -5 -31 0
-11 4 8 37 0
-36 -20 21 37 -16 0
-3 7 36 33 22 0
-34 -23 0
-4 -12 0
-13 37 -34 -22 7 5 0
26 -11 6 25 0
-16 -2 11 13 35 -26 0
40 0
